

timespan = 1;

Fact = [3];
Distr1 = [10];
Distr2 = [20];
Clients_N = [40];
Demand_W = [15];
Lt0 = [4];
Lt1 = [4];
SS_ = [0.85];
DS_D = [7];
K = [200];
MA = [500];

lost_ratio_sales_ret_th = 0.5;
lost_ratio_sales_ret_w = 1;
lost_ratio_sales_dis_th = 0.5;
lost_ratio_sales_dis_w = 1;
lost_ratio_sales_fac_th = 0.5;
lost_ratio_sales_fac_w = 1;
stock_customer_MA_mean_relative_th = 0.5;
stock_customer_MA_mean_relative_w = 1;
stock_distributor_MA_mean_relative_th = 0.5;
stock_distributor_MA_mean_relative_w = 1;
stock_retailer_MA_mean_relative_th = 0.5;
stock_retailer_MA_mean_relative_w = 1;
stock_factory_MA_mean_relative_th = 0.5;
stock_factory_MA_mean_relative_w = 1;
